\ Model opt_adjust
\ LP format - for model browsing. Use MPS format to capture full model detail.
Minimize
  x[0,0] + x[0,1] + x[1,0] + x[1,1] + x[2,0] + x[2,1] + x[3,0] + x[3,1]
   + x[4,0] + x[4,1] + x[5,0] + x[5,1] + x[6,0] + x[6,1] + x[7,0] + x[7,1]
Subject To
 qc0: [ x[0,0] * y[0] + x[1,0] * y[1] + x[2,0] * y[2] + x[3,0] * y[3]
   + x[4,0] * y[4] + x[5,0] * y[5] + x[6,0] * y[6] + x[7,0] * y[7] ] = 0
 qc1: [ x[0,1] * y[0] + x[1,1] * y[1] + x[2,1] * y[2] + x[3,1] * y[3]
   + x[4,1] * y[4] + x[5,1] * y[5] + x[6,1] * y[6] + x[7,1] * y[7] ] = 9
 qc2: - 25 y[0] + [ 0.016949152542373 x[0,0] * y[0]
   + 1.214689265536723 x[0,1] * y[0] ] = 0
 qc3: - 24 y[1] + [ 0.016949152542373 x[1,0] * y[1]
   + 1.214689265536723 x[1,1] * y[1] ] = 0
 qc4: - 27 y[2] + [ 0.016949152542373 x[2,0] * y[2]
   + 1.214689265536723 x[2,1] * y[2] ] = 0
 qc5: - 22 y[3] + [ 0.016949152542373 x[3,0] * y[3]
   + 1.214689265536723 x[3,1] * y[3] ] = 0
 qc6: - 18 y[4] + [ 0.016949152542373 x[4,0] * y[4]
   + 1.214689265536723 x[4,1] * y[4] ] = 0
 qc7: - 24 y[5] + [ 0.016949152542373 x[5,0] * y[5]
   + 1.214689265536723 x[5,1] * y[5] ] = 0
 qc8: - 18 y[6] + [ 0.016949152542373 x[6,0] * y[6]
   + 1.214689265536723 x[6,1] * y[6] ] = 0
 qc9: - 11 y[7] + [ 0.016949152542373 x[7,0] * y[7]
   + 1.214689265536723 x[7,1] * y[7] ] = 0
Bounds
 x[0,0] >= 4
 x[0,1] >= 13
 x[1,0] >= 1
 x[1,1] >= 1
 x[2,0] >= 4
 x[2,1] >= 10
 x[3,0] >= 4
 x[3,1] >= 16
 x[4,0] >= -13
 x[4,1] >= 15
 x[5,0] >= 15
 x[5,1] >= -3
 x[6,0] >= -4
 x[6,1] >= -9
 x[7,0] >= 4
 x[7,1] >= 9
End
